\ENCODING=ISO-8859-1
\Problem name: 

Minimize
 obj: y1 + y2 + y3 + y4 + y5 + y6 + y7 + y8 + y9 + y10 + y11 + y12
Subject To
 c1: x1 + x2 + x3 + x4  = 1000
 c2: x5 + x6 + x7 + x8  = 850
 c3: x9 + x10 + x11 + x12  = 1250
 c4: x1 + x5 + x9  = 900
 c5: x2 + x6 + x10  = 1200
 c6: x3 + x7 + x11  = 600
 c7: x4 + x8 + x12  = 400
Pwl
 p1:  y1 = x1 30 (200, 6000) (400, 22000) 130
 p2:  y2 = x2 30 (200, 6000) (400, 22000) 130
 p3:  y3 = x3 30 (200, 6000) (400, 22000) 130
 p4:  y4 = x4 30 (200, 6000) (400, 22000) 130
 p5:  y5 = x5 30 (200, 6000) (400, 22000) 130
 p6:  y6 = x6 30 (200, 6000) (400, 22000) 130
 p7:  y7 = x7 30 (200, 6000) (400, 22000) 130
 p8:  y8 = x8 30 (200, 6000) (400, 22000) 130
 p9:  y9 = x9 30 (200, 6000) (400, 22000) 130
 p10: y10 = x10 30 (200, 6000) (400, 22000) 130
 p11: y11 = x11 30 (200, 6000) (400, 22000) 130
 p12: y12 = x12 30 (200, 6000) (400, 22000) 130
End
